p cnf 22 24
-1 16 20 0 
-1 16 -2 14 20 0 
-3 -2 14 -4 5 8 10 11 12 13 21 0 
-3 -2 14 -5 4 8 10 11 12 13 21 0 
-1 16 21 0 
-3 -1 16 -6 9 21 0 
-7 17 -1 16 -8 4 5 10 11 12 13 21 0 
-7 17 -2 14 -9 6 21 0 
-3 -2 14 -10 4 5 8 11 12 13 21 0 
-1 16 -9 6 -11 4 5 8 10 12 13 21 0 
-2 14 21 0 
-7 17 -2 14 -12 4 5 8 10 11 13 21 0 
-1 16 -2 14 -13 4 5 8 10 11 12 21 0 
-2 14 20 0 
-7 17 -1 16 21 0 
-14 2 20 0 
-14 2 21 0 
-7 17 -1 16 20 0 
-3 -2 14 21 0 
-15 -14 2 20 0 
-16 1 -14 2 20 0 
-17 7 22 0 
-9 6 -14 2 20 0 
-18 -19 21 0 
